(set-option :opt.timeout 300000)
(declare-fun |0_0| () Bool)
(declare-fun |0_1| () Bool)
(declare-fun |0_2| () Bool)
(declare-fun |0_3| () Bool)
(declare-fun |0_4| () Bool)
(declare-fun |0_5| () Bool)
(declare-fun |0_6| () Bool)
(declare-fun |0_7| () Bool)
(declare-fun |0_8| () Bool)
(declare-fun |0_9| () Bool)
(declare-fun |1_0| () Bool)
(declare-fun |1_1| () Bool)
(declare-fun |1_2| () Bool)
(declare-fun |1_3| () Bool)
(declare-fun |1_4| () Bool)
(declare-fun |1_5| () Bool)
(declare-fun |1_6| () Bool)
(declare-fun |1_7| () Bool)
(declare-fun |1_8| () Bool)
(declare-fun |1_9| () Bool)
(declare-fun |2_0| () Bool)
(declare-fun |2_1| () Bool)
(declare-fun |2_2| () Bool)
(declare-fun |2_3| () Bool)
(declare-fun |2_4| () Bool)
(declare-fun |2_5| () Bool)
(declare-fun |2_6| () Bool)
(declare-fun |2_7| () Bool)
(declare-fun |2_8| () Bool)
(declare-fun |2_9| () Bool)
(declare-fun |3_0| () Bool)
(declare-fun |3_1| () Bool)
(declare-fun |3_2| () Bool)
(declare-fun |3_3| () Bool)
(declare-fun |3_4| () Bool)
(declare-fun |3_5| () Bool)
(declare-fun |3_6| () Bool)
(declare-fun |3_7| () Bool)
(declare-fun |3_8| () Bool)
(declare-fun |3_9| () Bool)
(declare-fun |4_0| () Bool)
(declare-fun |4_1| () Bool)
(declare-fun |4_2| () Bool)
(declare-fun |4_3| () Bool)
(declare-fun |4_4| () Bool)
(declare-fun |4_5| () Bool)
(declare-fun |4_6| () Bool)
(declare-fun |4_7| () Bool)
(declare-fun |4_8| () Bool)
(declare-fun |4_9| () Bool)
(assert (and ((_ at-most 1)
       (xor |0_0| |0_1|)
       (xor |1_0| |1_1|)
       (xor |2_0| |2_1|)
       (xor |3_0| |3_1|)
       (xor |4_0| |4_1|))
     ((_ at-most 1)
       (xor |0_1| |0_2|)
       (xor |1_1| |1_2|)
       (xor |2_1| |2_2|)
       (xor |3_1| |3_2|)
       (xor |4_1| |4_2|))
     ((_ at-most 1)
       (xor |0_2| |0_3|)
       (xor |1_2| |1_3|)
       (xor |2_2| |2_3|)
       (xor |3_2| |3_3|)
       (xor |4_2| |4_3|))
     ((_ at-most 1)
       (xor |0_3| |0_4|)
       (xor |1_3| |1_4|)
       (xor |2_3| |2_4|)
       (xor |3_3| |3_4|)
       (xor |4_3| |4_4|))
     ((_ at-most 1)
       (xor |0_4| |0_5|)
       (xor |1_4| |1_5|)
       (xor |2_4| |2_5|)
       (xor |3_4| |3_5|)
       (xor |4_4| |4_5|))
     ((_ at-most 1)
       (xor |0_5| |0_6|)
       (xor |1_5| |1_6|)
       (xor |2_5| |2_6|)
       (xor |3_5| |3_6|)
       (xor |4_5| |4_6|))
     ((_ at-most 1)
       (xor |0_6| |0_7|)
       (xor |1_6| |1_7|)
       (xor |2_6| |2_7|)
       (xor |3_6| |3_7|)
       (xor |4_6| |4_7|))
     ((_ at-most 1)
       (xor |0_7| |0_8|)
       (xor |1_7| |1_8|)
       (xor |2_7| |2_8|)
       (xor |3_7| |3_8|)
       (xor |4_7| |4_8|))
     ((_ at-most 1)
       (xor |0_8| |0_9|)
       (xor |1_8| |1_9|)
       (xor |2_8| |2_9|)
       (xor |3_8| |3_9|)
       (xor |4_8| |4_9|))
     (=> |0_0| (or |2_0| |4_0|))
     (=> |0_0| |1_0|)
     (=> |0_1| (or |2_1| |4_1|))
     (=> |0_1| |1_1|)
     (=> |0_2| (or |2_2| |4_2|))
     (=> |0_2| |1_2|)
     (=> |0_3| (or |2_3| |4_3|))
     (=> |0_3| |1_3|)
     (=> |0_4| (or |2_4| |4_4|))
     (=> |0_4| |1_4|)
     (=> |0_5| (or |2_5| |4_5|))
     (=> |0_5| |1_5|)
     (=> |0_6| (or |2_6| |4_6|))
     (=> |0_6| |1_6|)
     (=> |0_7| (or |2_7| |4_7|))
     (=> |0_7| |1_7|)
     (=> |0_8| (or |2_8| |4_8|))
     (=> |0_8| |1_8|)
     (=> |0_9| (or |2_9| |4_9|))
     (=> |0_9| |1_9|)
     (not (and |1_0| |2_0|))
     (not (and |1_1| |2_1|))
     (not (and |1_2| |2_2|))
     (not (and |1_3| |2_3|))
     (not (and |1_4| |2_4|))
     (not (and |1_5| |2_5|))
     (not (and |1_6| |2_6|))
     (not (and |1_7| |2_7|))
     (not (and |1_8| |2_8|))
     (not (and |1_9| |2_9|))
     (not (and |2_0| |3_0|))
     (not (and |2_1| |3_1|))
     (not (and |2_2| |3_2|))
     (not (and |2_3| |3_3|))
     (not (and |2_4| |3_4|))
     (not (and |2_5| |3_5|))
     (not (and |2_6| |3_6|))
     (not (and |2_7| |3_7|))
     (not (and |2_8| |3_8|))
     (not (and |2_9| |3_9|))
     (not (and |4_0| (or |3_0| |2_0|)))
     (not (and |4_1| (or |3_1| |2_1|)))
     (not (and |4_2| (or |3_2| |2_2|)))
     (not (and |4_3| (or |3_3| |2_3|)))
     (not (and |4_4| (or |3_4| |2_4|)))
     (not (and |4_5| (or |3_5| |2_5|)))
     (not (and |4_6| (or |3_6| |2_6|)))
     (not (and |4_7| (or |3_7| |2_7|)))
     (not (and |4_8| (or |3_8| |2_8|)))
     (not (and |4_9| (or |3_9| |2_9|)))
     (not |0_0|)
     (not |1_0|)
     (not |2_0|)
     (not |3_0|)
     (not |4_0|)
     |0_9|))
(assert-soft (and (not |0_0|) |0_1|) :weight -1672)
(assert-soft (and |0_0| (not |0_1|)) :weight -1000000)
(assert-soft (and (not |1_0|) |1_1|) :weight -88847)
(assert-soft (and |1_0| (not |1_1|)) :weight -1000000)
(assert-soft (and (not |2_0|) |2_1|) :weight -211234)
(assert-soft (and |2_0| (not |2_1|)) :weight -1000000)
(assert-soft (and (not |3_0|) |3_1|) :weight -83619)
(assert-soft (and |3_0| (not |3_1|)) :weight -1000000)
(assert-soft (and (not |4_0|) |4_1|) :weight -23)
(assert-soft (and |4_0| (not |4_1|)) :weight -1000000)
(assert-soft (and (not |0_1|) |0_2|) :weight -1672)
(assert-soft (and |0_1| (not |0_2|)) :weight -1000000)
(assert-soft (and (not |1_1|) |1_2|) :weight -88847)
(assert-soft (and |1_1| (not |1_2|)) :weight -1000000)
(assert-soft (and (not |2_1|) |2_2|) :weight -211234)
(assert-soft (and |2_1| (not |2_2|)) :weight -1000000)
(assert-soft (and (not |3_1|) |3_2|) :weight -83619)
(assert-soft (and |3_1| (not |3_2|)) :weight -1000000)
(assert-soft (and (not |4_1|) |4_2|) :weight -23)
(assert-soft (and |4_1| (not |4_2|)) :weight -1000000)
(assert-soft (and (not |0_2|) |0_3|) :weight -1672)
(assert-soft (and |0_2| (not |0_3|)) :weight -1000000)
(assert-soft (and (not |1_2|) |1_3|) :weight -88847)
(assert-soft (and |1_2| (not |1_3|)) :weight -1000000)
(assert-soft (and (not |2_2|) |2_3|) :weight -211234)
(assert-soft (and |2_2| (not |2_3|)) :weight -1000000)
(assert-soft (and (not |3_2|) |3_3|) :weight -83619)
(assert-soft (and |3_2| (not |3_3|)) :weight -1000000)
(assert-soft (and (not |4_2|) |4_3|) :weight -23)
(assert-soft (and |4_2| (not |4_3|)) :weight -1000000)
(assert-soft (and (not |0_3|) |0_4|) :weight -1672)
(assert-soft (and |0_3| (not |0_4|)) :weight -1000000)
(assert-soft (and (not |1_3|) |1_4|) :weight -88847)
(assert-soft (and |1_3| (not |1_4|)) :weight -1000000)
(assert-soft (and (not |2_3|) |2_4|) :weight -211234)
(assert-soft (and |2_3| (not |2_4|)) :weight -1000000)
(assert-soft (and (not |3_3|) |3_4|) :weight -83619)
(assert-soft (and |3_3| (not |3_4|)) :weight -1000000)
(assert-soft (and (not |4_3|) |4_4|) :weight -23)
(assert-soft (and |4_3| (not |4_4|)) :weight -1000000)
(assert-soft (and (not |0_4|) |0_5|) :weight -1672)
(assert-soft (and |0_4| (not |0_5|)) :weight -1000000)
(assert-soft (and (not |1_4|) |1_5|) :weight -88847)
(assert-soft (and |1_4| (not |1_5|)) :weight -1000000)
(assert-soft (and (not |2_4|) |2_5|) :weight -211234)
(assert-soft (and |2_4| (not |2_5|)) :weight -1000000)
(assert-soft (and (not |3_4|) |3_5|) :weight -83619)
(assert-soft (and |3_4| (not |3_5|)) :weight -1000000)
(assert-soft (and (not |4_4|) |4_5|) :weight -23)
(assert-soft (and |4_4| (not |4_5|)) :weight -1000000)
(assert-soft (and (not |0_5|) |0_6|) :weight -1672)
(assert-soft (and |0_5| (not |0_6|)) :weight -1000000)
(assert-soft (and (not |1_5|) |1_6|) :weight -88847)
(assert-soft (and |1_5| (not |1_6|)) :weight -1000000)
(assert-soft (and (not |2_5|) |2_6|) :weight -211234)
(assert-soft (and |2_5| (not |2_6|)) :weight -1000000)
(assert-soft (and (not |3_5|) |3_6|) :weight -83619)
(assert-soft (and |3_5| (not |3_6|)) :weight -1000000)
(assert-soft (and (not |4_5|) |4_6|) :weight -23)
(assert-soft (and |4_5| (not |4_6|)) :weight -1000000)
(assert-soft (and (not |0_6|) |0_7|) :weight -1672)
(assert-soft (and |0_6| (not |0_7|)) :weight -1000000)
(assert-soft (and (not |1_6|) |1_7|) :weight -88847)
(assert-soft (and |1_6| (not |1_7|)) :weight -1000000)
(assert-soft (and (not |2_6|) |2_7|) :weight -211234)
(assert-soft (and |2_6| (not |2_7|)) :weight -1000000)
(assert-soft (and (not |3_6|) |3_7|) :weight -83619)
(assert-soft (and |3_6| (not |3_7|)) :weight -1000000)
(assert-soft (and (not |4_6|) |4_7|) :weight -23)
(assert-soft (and |4_6| (not |4_7|)) :weight -1000000)
(assert-soft (and (not |0_7|) |0_8|) :weight -1672)
(assert-soft (and |0_7| (not |0_8|)) :weight -1000000)
(assert-soft (and (not |1_7|) |1_8|) :weight -88847)
(assert-soft (and |1_7| (not |1_8|)) :weight -1000000)
(assert-soft (and (not |2_7|) |2_8|) :weight -211234)
(assert-soft (and |2_7| (not |2_8|)) :weight -1000000)
(assert-soft (and (not |3_7|) |3_8|) :weight -83619)
(assert-soft (and |3_7| (not |3_8|)) :weight -1000000)
(assert-soft (and (not |4_7|) |4_8|) :weight -23)
(assert-soft (and |4_7| (not |4_8|)) :weight -1000000)
(assert-soft (and (not |0_8|) |0_9|) :weight -1672)
(assert-soft (and |0_8| (not |0_9|)) :weight -1000000)
(assert-soft (and (not |1_8|) |1_9|) :weight -88847)
(assert-soft (and |1_8| (not |1_9|)) :weight -1000000)
(assert-soft (and (not |2_8|) |2_9|) :weight -211234)
(assert-soft (and |2_8| (not |2_9|)) :weight -1000000)
(assert-soft (and (not |3_8|) |3_9|) :weight -83619)
(assert-soft (and |3_8| (not |3_9|)) :weight -1000000)
(assert-soft (and (not |4_8|) |4_9|) :weight -23)
(assert-soft (and |4_8| (not |4_9|)) :weight -1000000)
(check-sat)

